NAME : XML100_1142_04
DIMENSION : 101
NB_CLUSTERS : 26
CLUSTERING_ALG : KMeans
CLUSTERING_PARAMS : k(27)
CLUSTERS
1 0
2 9 24 59 90
3 5 15 23 65 81
4 46 48 49 82
5 36 96
6 7 26 31 32 37
7 12 35 77 79
8 21 40 55 92
9 60 70 84 88 95
10 25 52 83 93
11 3 11 28 73 91
12 17 41 57
13 47 72 76 100
14 8 42 78 94
15 14 16 38 50 67
16 53 62 74 75 97
17 34 63 85
18 2 27 29 30 43 45 64
19 1 33 71 99
20 51 69 80
21 4 39 44 87
22 19 89 98
23 10 20 54 86
24 6 13 18 68
25 22 58 66
26 56 61
EOF